c description: Random 3-CNF over 16 variables and 68 clauses
c generator: CNFgen (0.9.2)
c copyright: (C) 2012-2022 Massimo Lauria <massimo.lauria@uniroma1.it>
c url: https://massimolauria.net/cnfgen
c command line: cnfgen --output CNF_4.28/16_bit_68_951.cnf randkcnf 3 16 68
c
p cnf 16 68
-9 -12 -15 0
2 -9 12 0
6 7 9 0
6 -11 -15 0
-2 -8 -16 0
10 11 -13 0
-5 -6 7 0
-2 3 -16 0
-1 5 6 0
4 5 8 0
-3 4 9 0
-1 -7 -9 0
-3 13 14 0
4 10 12 0
2 -7 -8 0
5 6 14 0
-1 3 7 0
4 -8 15 0
-4 6 9 0
-4 7 13 0
6 8 -10 0
1 -8 -10 0
-2 -8 -11 0
2 5 -7 0
-8 -11 14 0
2 9 15 0
2 5 -9 0
1 -3 13 0
-3 9 12 0
8 -11 -15 0
-4 13 -14 0
-1 -5 9 0
-6 -8 13 0
-5 -10 11 0
-2 -3 9 0
2 -3 -12 0
1 -7 13 0
2 -5 10 0
4 6 -15 0
7 9 14 0
1 7 16 0
-4 9 12 0
2 -6 -14 0
-4 5 6 0
1 -6 7 0
-1 -3 -8 0
-8 -9 -14 0
-4 7 14 0
2 -9 -11 0
1 8 -15 0
-1 3 -4 0
1 11 14 0
3 -8 -13 0
-1 4 5 0
1 -6 11 0
4 14 -15 0
-1 3 -15 0
-4 -8 -16 0
-3 -6 9 0
5 11 -15 0
-6 10 16 0
-7 -12 -14 0
6 12 -16 0
5 -10 -15 0
-3 5 -12 0
-2 -7 16 0
-1 12 13 0
4 15 16 0
